NAME /Users/henri/Research/solvers/instances/idol-instances/robust/collection/spp_dkp_Lefebvre_et_al_2026/shortest_path_10_10/models/uncertain_ctr/model
ROWS
 N  OBJ
 E  flow_cons_inner_nodes[0]
 E  flow_cons_inner_nodes[1]
 E  flow_cons_inner_nodes[2]
 E  flow_cons_inner_nodes[3]
 E  flow_cons_inner_nodes[4]
 E  flow_cons_inner_nodes[5]
 E  flow_cons_inner_nodes[6]
 E  flow_cons_inner_nodes[9]
 E  flow_cons_source
 E  flow_cons_target
 G  c_16204
COLUMNS
    z          OBJ        1
    z          c_16204    1
    MARKER    'MARKER'                 'INTORG'
    y[0,2]     OBJ        0
    y[0,2]     c_16204    -49.09
    y[0,2]     flow_cons_inner_nodes[2] 1
    y[0,2]     flow_cons_inner_nodes[0] -1
    y[0,3]     OBJ        0
    y[0,3]     c_16204    -18.11
    y[0,3]     flow_cons_inner_nodes[3] 1
    y[0,3]     flow_cons_inner_nodes[0] -1
    y[0,4]     OBJ        0
    y[0,4]     c_16204    -22.02
    y[0,4]     flow_cons_inner_nodes[4] 1
    y[0,4]     flow_cons_inner_nodes[0] -1
    y[0,5]     OBJ        0
    y[0,5]     c_16204    -24.76
    y[0,5]     flow_cons_inner_nodes[5] 1
    y[0,5]     flow_cons_inner_nodes[0] -1
    y[0,6]     OBJ        0
    y[0,6]     c_16204    -50.99
    y[0,6]     flow_cons_inner_nodes[6] 1
    y[0,6]     flow_cons_inner_nodes[0] -1
    y[0,7]     OBJ        0
    y[0,7]     c_16204    -46.39
    y[0,7]     flow_cons_source -1
    y[0,7]     flow_cons_inner_nodes[0] -1
    y[0,9]     OBJ        0
    y[0,9]     c_16204    -52.2
    y[0,9]     flow_cons_inner_nodes[9] 1
    y[0,9]     flow_cons_inner_nodes[0] -1
    y[1,2]     OBJ        0
    y[1,2]     c_16204    -35.85
    y[1,2]     flow_cons_inner_nodes[2] 1
    y[1,2]     flow_cons_inner_nodes[1] -1
    y[1,5]     OBJ        0
    y[1,5]     c_16204    -58
    y[1,5]     flow_cons_inner_nodes[5] 1
    y[1,5]     flow_cons_inner_nodes[1] -1
    y[1,6]     OBJ        0
    y[1,6]     c_16204    -48.84
    y[1,6]     flow_cons_inner_nodes[6] 1
    y[1,6]     flow_cons_inner_nodes[1] -1
    y[1,7]     OBJ        0
    y[1,7]     c_16204    -66.1
    y[1,7]     flow_cons_source -1
    y[1,7]     flow_cons_inner_nodes[1] -1
    y[1,9]     OBJ        0
    y[1,9]     c_16204    -43.93
    y[1,9]     flow_cons_inner_nodes[9] 1
    y[1,9]     flow_cons_inner_nodes[1] -1
    y[2,0]     OBJ        0
    y[2,0]     c_16204    -49.09
    y[2,0]     flow_cons_inner_nodes[2] -1
    y[2,0]     flow_cons_inner_nodes[0] 1
    y[2,1]     OBJ        0
    y[2,1]     c_16204    -35.85
    y[2,1]     flow_cons_inner_nodes[2] -1
    y[2,1]     flow_cons_inner_nodes[1] 1
    y[2,3]     OBJ        0
    y[2,3]     c_16204    -43.93
    y[2,3]     flow_cons_inner_nodes[3] 1
    y[2,3]     flow_cons_inner_nodes[2] -1
    y[2,4]     OBJ        0
    y[2,4]     c_16204    -51.62
    y[2,4]     flow_cons_inner_nodes[4] 1
    y[2,4]     flow_cons_inner_nodes[2] -1
    y[2,5]     OBJ        0
    y[2,5]     c_16204    -25.63
    y[2,5]     flow_cons_inner_nodes[5] 1
    y[2,5]     flow_cons_inner_nodes[2] -1
    y[2,6]     OBJ        0
    y[2,6]     c_16204    -19.24
    y[2,6]     flow_cons_inner_nodes[6] 1
    y[2,6]     flow_cons_inner_nodes[2] -1
    y[2,7]     OBJ        0
    y[2,7]     c_16204    -50.7
    y[2,7]     flow_cons_source -1
    y[2,7]     flow_cons_inner_nodes[2] -1
    y[2,8]     OBJ        0
    y[2,8]     c_16204    -61.1
    y[2,8]     flow_cons_target 1
    y[2,8]     flow_cons_inner_nodes[2] -1
    y[2,9]     OBJ        0
    y[2,9]     c_16204    -15
    y[2,9]     flow_cons_inner_nodes[9] 1
    y[2,9]     flow_cons_inner_nodes[2] -1
    y[3,0]     OBJ        0
    y[3,0]     c_16204    -18.11
    y[3,0]     flow_cons_inner_nodes[3] -1
    y[3,0]     flow_cons_inner_nodes[0] 1
    y[3,2]     OBJ        0
    y[3,2]     c_16204    -43.93
    y[3,2]     flow_cons_inner_nodes[3] -1
    y[3,2]     flow_cons_inner_nodes[2] 1
    y[3,4]     OBJ        0
    y[3,4]     flow_cons_inner_nodes[4] 1
    y[3,4]     c_16204    -38.48
    y[3,4]     flow_cons_inner_nodes[3] -1
    y[3,5]     OBJ        0
    y[3,5]     flow_cons_inner_nodes[5] 1
    y[3,5]     c_16204    -19
    y[3,5]     flow_cons_inner_nodes[3] -1
    y[3,6]     OBJ        0
    y[3,6]     flow_cons_inner_nodes[6] 1
    y[3,6]     c_16204    -52.61
    y[3,6]     flow_cons_inner_nodes[3] -1
    y[3,7]     OBJ        0
    y[3,7]     c_16204    -28.28
    y[3,7]     flow_cons_source -1
    y[3,7]     flow_cons_inner_nodes[3] -1
    y[3,9]     OBJ        0
    y[3,9]     flow_cons_inner_nodes[9] 1
    y[3,9]     c_16204    -52.09
    y[3,9]     flow_cons_inner_nodes[3] -1
    y[4,0]     OBJ        0
    y[4,0]     c_16204    -22.02
    y[4,0]     flow_cons_inner_nodes[4] -1
    y[4,0]     flow_cons_inner_nodes[0] 1
    y[4,2]     OBJ        0
    y[4,2]     c_16204    -51.62
    y[4,2]     flow_cons_inner_nodes[4] -1
    y[4,2]     flow_cons_inner_nodes[2] 1
    y[4,3]     OBJ        0
    y[4,3]     flow_cons_inner_nodes[4] -1
    y[4,3]     c_16204    -38.48
    y[4,3]     flow_cons_inner_nodes[3] 1
    y[4,5]     OBJ        0
    y[4,5]     c_16204    -35.13
    y[4,5]     flow_cons_inner_nodes[5] 1
    y[4,5]     flow_cons_inner_nodes[4] -1
    y[4,6]     OBJ        0
    y[4,6]     c_16204    -45
    y[4,6]     flow_cons_inner_nodes[6] 1
    y[4,6]     flow_cons_inner_nodes[4] -1
    y[4,7]     OBJ        0
    y[4,7]     c_16204    -66.1
    y[4,7]     flow_cons_source -1
    y[4,7]     flow_cons_inner_nodes[4] -1
    y[4,8]     OBJ        0
    y[4,8]     c_16204    -50.7
    y[4,8]     flow_cons_target 1
    y[4,8]     flow_cons_inner_nodes[4] -1
    y[4,9]     OBJ        0
    y[4,9]     c_16204    -48.17
    y[4,9]     flow_cons_inner_nodes[9] 1
    y[4,9]     flow_cons_inner_nodes[4] -1
    y[5,0]     OBJ        0
    y[5,0]     c_16204    -24.76
    y[5,0]     flow_cons_inner_nodes[5] -1
    y[5,0]     flow_cons_inner_nodes[0] 1
    y[5,1]     OBJ        0
    y[5,1]     c_16204    -58
    y[5,1]     flow_cons_inner_nodes[5] -1
    y[5,1]     flow_cons_inner_nodes[1] 1
    y[5,2]     OBJ        0
    y[5,2]     c_16204    -25.63
    y[5,2]     flow_cons_inner_nodes[5] -1
    y[5,2]     flow_cons_inner_nodes[2] 1
    y[5,3]     OBJ        0
    y[5,3]     flow_cons_inner_nodes[5] -1
    y[5,3]     c_16204    -19
    y[5,3]     flow_cons_inner_nodes[3] 1
    y[5,4]     OBJ        0
    y[5,4]     c_16204    -35.13
    y[5,4]     flow_cons_inner_nodes[5] -1
    y[5,4]     flow_cons_inner_nodes[4] 1
    y[5,6]     OBJ        0
    y[5,6]     c_16204    -33.96
    y[5,6]     flow_cons_inner_nodes[6] 1
    y[5,6]     flow_cons_inner_nodes[5] -1
    y[5,7]     OBJ        0
    y[5,7]     c_16204    -36.24
    y[5,7]     flow_cons_source -1
    y[5,7]     flow_cons_inner_nodes[5] -1
    y[5,9]     OBJ        0
    y[5,9]     c_16204    -33.14
    y[5,9]     flow_cons_inner_nodes[9] 1
    y[5,9]     flow_cons_inner_nodes[5] -1
    y[6,0]     OBJ        0
    y[6,0]     c_16204    -50.99
    y[6,0]     flow_cons_inner_nodes[6] -1
    y[6,0]     flow_cons_inner_nodes[0] 1
    y[6,1]     OBJ        0
    y[6,1]     c_16204    -48.84
    y[6,1]     flow_cons_inner_nodes[6] -1
    y[6,1]     flow_cons_inner_nodes[1] 1
    y[6,2]     OBJ        0
    y[6,2]     c_16204    -19.24
    y[6,2]     flow_cons_inner_nodes[6] -1
    y[6,2]     flow_cons_inner_nodes[2] 1
    y[6,3]     OBJ        0
    y[6,3]     flow_cons_inner_nodes[6] -1
    y[6,3]     c_16204    -52.61
    y[6,3]     flow_cons_inner_nodes[3] 1
    y[6,4]     OBJ        0
    y[6,4]     c_16204    -45
    y[6,4]     flow_cons_inner_nodes[6] -1
    y[6,4]     flow_cons_inner_nodes[4] 1
    y[6,5]     OBJ        0
    y[6,5]     c_16204    -33.96
    y[6,5]     flow_cons_inner_nodes[6] -1
    y[6,5]     flow_cons_inner_nodes[5] 1
    y[6,8]     OBJ        0
    y[6,8]     c_16204    -42.06
    y[6,8]     flow_cons_target 1
    y[6,8]     flow_cons_inner_nodes[6] -1
    y[6,9]     OBJ        0
    y[6,9]     c_16204    -5
    y[6,9]     flow_cons_inner_nodes[9] 1
    y[6,9]     flow_cons_inner_nodes[6] -1
    y[7,0]     OBJ        0
    y[7,0]     c_16204    -46.39
    y[7,0]     flow_cons_source 1
    y[7,0]     flow_cons_inner_nodes[0] 1
    y[7,1]     OBJ        0
    y[7,1]     c_16204    -66.1
    y[7,1]     flow_cons_source 1
    y[7,1]     flow_cons_inner_nodes[1] 1
    y[7,2]     OBJ        0
    y[7,2]     c_16204    -50.7
    y[7,2]     flow_cons_source 1
    y[7,2]     flow_cons_inner_nodes[2] 1
    y[7,3]     OBJ        0
    y[7,3]     c_16204    -28.28
    y[7,3]     flow_cons_source 1
    y[7,3]     flow_cons_inner_nodes[3] 1
    y[7,4]     OBJ        0
    y[7,4]     c_16204    -66.1
    y[7,4]     flow_cons_source 1
    y[7,4]     flow_cons_inner_nodes[4] 1
    y[7,5]     OBJ        0
    y[7,5]     c_16204    -36.24
    y[7,5]     flow_cons_source 1
    y[7,5]     flow_cons_inner_nodes[5] 1
    y[7,9]     OBJ        0
    y[7,9]     c_16204    -64.01
    y[7,9]     flow_cons_source 1
    y[7,9]     flow_cons_inner_nodes[9] 1
    y[8,2]     OBJ        0
    y[8,2]     c_16204    -61.1
    y[8,2]     flow_cons_target -1
    y[8,2]     flow_cons_inner_nodes[2] 1
    y[8,4]     OBJ        0
    y[8,4]     c_16204    -50.7
    y[8,4]     flow_cons_target -1
    y[8,4]     flow_cons_inner_nodes[4] 1
    y[8,6]     OBJ        0
    y[8,6]     c_16204    -42.06
    y[8,6]     flow_cons_target -1
    y[8,6]     flow_cons_inner_nodes[6] 1
    y[8,9]     OBJ        0
    y[8,9]     c_16204    -46.84
    y[8,9]     flow_cons_target -1
    y[8,9]     flow_cons_inner_nodes[9] 1
    y[9,0]     OBJ        0
    y[9,0]     c_16204    -52.2
    y[9,0]     flow_cons_inner_nodes[9] -1
    y[9,0]     flow_cons_inner_nodes[0] 1
    y[9,1]     OBJ        0
    y[9,1]     c_16204    -43.93
    y[9,1]     flow_cons_inner_nodes[9] -1
    y[9,1]     flow_cons_inner_nodes[1] 1
    y[9,2]     OBJ        0
    y[9,2]     c_16204    -15
    y[9,2]     flow_cons_inner_nodes[9] -1
    y[9,2]     flow_cons_inner_nodes[2] 1
    y[9,3]     OBJ        0
    y[9,3]     flow_cons_inner_nodes[9] -1
    y[9,3]     c_16204    -52.09
    y[9,3]     flow_cons_inner_nodes[3] 1
    y[9,4]     OBJ        0
    y[9,4]     c_16204    -48.17
    y[9,4]     flow_cons_inner_nodes[9] -1
    y[9,4]     flow_cons_inner_nodes[4] 1
    y[9,5]     OBJ        0
    y[9,5]     c_16204    -33.14
    y[9,5]     flow_cons_inner_nodes[9] -1
    y[9,5]     flow_cons_inner_nodes[5] 1
    y[9,6]     OBJ        0
    y[9,6]     c_16204    -5
    y[9,6]     flow_cons_inner_nodes[9] -1
    y[9,6]     flow_cons_inner_nodes[6] 1
    y[9,7]     OBJ        0
    y[9,7]     c_16204    -64.01
    y[9,7]     flow_cons_source -1
    y[9,7]     flow_cons_inner_nodes[9] -1
    y[9,8]     OBJ        0
    y[9,8]     c_16204    -46.84
    y[9,8]     flow_cons_target 1
    y[9,8]     flow_cons_inner_nodes[9] -1
    MARKER    'MARKER'                 'INTEND'
RHS
    RHS       flow_cons_inner_nodes[0] -0
    RHS       flow_cons_inner_nodes[1] -0
    RHS       flow_cons_inner_nodes[2] -0
    RHS       flow_cons_inner_nodes[3] -0
    RHS       flow_cons_inner_nodes[4] -0
    RHS       flow_cons_inner_nodes[5] -0
    RHS       flow_cons_inner_nodes[6] -0
    RHS       flow_cons_inner_nodes[9] -0
    RHS       flow_cons_source 1
    RHS       flow_cons_target 1
    RHS       c_16204    -0
BOUNDS
 LI BND       y[0,2]     0
 UI BND       y[0,2]     1
 LI BND       y[0,3]     0
 UI BND       y[0,3]     1
 LI BND       y[0,4]     0
 UI BND       y[0,4]     1
 LI BND       y[0,5]     0
 UI BND       y[0,5]     1
 LI BND       y[0,6]     0
 UI BND       y[0,6]     1
 LI BND       y[0,7]     0
 UI BND       y[0,7]     1
 LI BND       y[0,9]     0
 UI BND       y[0,9]     1
 LI BND       y[1,2]     0
 UI BND       y[1,2]     1
 LI BND       y[1,5]     0
 UI BND       y[1,5]     1
 LI BND       y[1,6]     0
 UI BND       y[1,6]     1
 LI BND       y[1,7]     0
 UI BND       y[1,7]     1
 LI BND       y[1,9]     0
 UI BND       y[1,9]     1
 LI BND       y[2,0]     0
 UI BND       y[2,0]     1
 LI BND       y[2,1]     0
 UI BND       y[2,1]     1
 LI BND       y[2,3]     0
 UI BND       y[2,3]     1
 LI BND       y[2,4]     0
 UI BND       y[2,4]     1
 LI BND       y[2,5]     0
 UI BND       y[2,5]     1
 LI BND       y[2,6]     0
 UI BND       y[2,6]     1
 LI BND       y[2,7]     0
 UI BND       y[2,7]     1
 LI BND       y[2,8]     0
 UI BND       y[2,8]     1
 LI BND       y[2,9]     0
 UI BND       y[2,9]     1
 LI BND       y[3,0]     0
 UI BND       y[3,0]     1
 LI BND       y[3,2]     0
 UI BND       y[3,2]     1
 LI BND       y[3,4]     0
 UI BND       y[3,4]     1
 LI BND       y[3,5]     0
 UI BND       y[3,5]     1
 LI BND       y[3,6]     0
 UI BND       y[3,6]     1
 LI BND       y[3,7]     0
 UI BND       y[3,7]     1
 LI BND       y[3,9]     0
 UI BND       y[3,9]     1
 LI BND       y[4,0]     0
 UI BND       y[4,0]     1
 LI BND       y[4,2]     0
 UI BND       y[4,2]     1
 LI BND       y[4,3]     0
 UI BND       y[4,3]     1
 LI BND       y[4,5]     0
 UI BND       y[4,5]     1
 LI BND       y[4,6]     0
 UI BND       y[4,6]     1
 LI BND       y[4,7]     0
 UI BND       y[4,7]     1
 LI BND       y[4,8]     0
 UI BND       y[4,8]     1
 LI BND       y[4,9]     0
 UI BND       y[4,9]     1
 LI BND       y[5,0]     0
 UI BND       y[5,0]     1
 LI BND       y[5,1]     0
 UI BND       y[5,1]     1
 LI BND       y[5,2]     0
 UI BND       y[5,2]     1
 LI BND       y[5,3]     0
 UI BND       y[5,3]     1
 LI BND       y[5,4]     0
 UI BND       y[5,4]     1
 LI BND       y[5,6]     0
 UI BND       y[5,6]     1
 LI BND       y[5,7]     0
 UI BND       y[5,7]     1
 LI BND       y[5,9]     0
 UI BND       y[5,9]     1
 LI BND       y[6,0]     0
 UI BND       y[6,0]     1
 LI BND       y[6,1]     0
 UI BND       y[6,1]     1
 LI BND       y[6,2]     0
 UI BND       y[6,2]     1
 LI BND       y[6,3]     0
 UI BND       y[6,3]     1
 LI BND       y[6,4]     0
 UI BND       y[6,4]     1
 LI BND       y[6,5]     0
 UI BND       y[6,5]     1
 LI BND       y[6,8]     0
 UI BND       y[6,8]     1
 LI BND       y[6,9]     0
 UI BND       y[6,9]     1
 LI BND       y[7,0]     0
 UI BND       y[7,0]     1
 LI BND       y[7,1]     0
 UI BND       y[7,1]     1
 LI BND       y[7,2]     0
 UI BND       y[7,2]     1
 LI BND       y[7,3]     0
 UI BND       y[7,3]     1
 LI BND       y[7,4]     0
 UI BND       y[7,4]     1
 LI BND       y[7,5]     0
 UI BND       y[7,5]     1
 LI BND       y[7,9]     0
 UI BND       y[7,9]     1
 LI BND       y[8,2]     0
 UI BND       y[8,2]     1
 LI BND       y[8,4]     0
 UI BND       y[8,4]     1
 LI BND       y[8,6]     0
 UI BND       y[8,6]     1
 LI BND       y[8,9]     0
 UI BND       y[8,9]     1
 LI BND       y[9,0]     0
 UI BND       y[9,0]     1
 LI BND       y[9,1]     0
 UI BND       y[9,1]     1
 LI BND       y[9,2]     0
 UI BND       y[9,2]     1
 LI BND       y[9,3]     0
 UI BND       y[9,3]     1
 LI BND       y[9,4]     0
 UI BND       y[9,4]     1
 LI BND       y[9,5]     0
 UI BND       y[9,5]     1
 LI BND       y[9,6]     0
 UI BND       y[9,6]     1
 LI BND       y[9,7]     0
 UI BND       y[9,7]     1
 LI BND       y[9,8]     0
 UI BND       y[9,8]     1
 LO BND       z          0
 UP BND       z          3582.35
ENDATA
